#######################
Slurm job id: 17497813_263
Running on machine: p46
Running cmd: /nfs/shared/static-builds/gurobi1202 SOFTMEMLIMIT=125 TimeLimit=500 seed=12 /nfs/models/miplib2010/k16x240.mps.bz2
#######################
Set parameter TimeLimit to value 500
Set parameter SoftMemLimit to value 125
Set parameter LogFile to value 1202-TimeLimit500-k16x240-2.log
Set parameter Seed to value 12
Using license file /opt/gurobi/gurobi.lic

Gurobi Optimizer version 12.0.2 build v12.0.2rc0 (linux64 - "Ubuntu 22.04.4 LTS")
Copyright (c) 2025, Gurobi Optimization, LLC

Read MPS format model from file /nfs/models/miplib2010/k16x240.mps.bz2
Reading time = 0.00 seconds
k16x240: 256 rows, 480 columns, 960 nonzeros

Using Gurobi shared library /nfs/shared/static-builds/gurobi1202

CPU model: Intel(R) Xeon(R) E-2388G CPU @ 3.20GHz, instruction set [SSE2|AVX|AVX2|AVX512]
Thread count: 8 physical cores, 16 logical processors, using up to 16 threads

Non-default parameters:
TimeLimit  500
SoftMemLimit  125
Seed  12

Optimize a model with 256 rows, 480 columns and 960 nonzeros
Model fingerprint: 0x4e80885f
Variable types: 240 continuous, 240 integer (240 binary)
Coefficient statistics:
  Matrix range     [1e+00, 1e+03]
  Objective range  [1e+00, 1e+03]
  Bounds range     [1e+00, 1e+03]
  RHS range        [4e+00, 4e+02]
Found heuristic solution: objective 19617.000000
Presolve time: 0.00s
Presolved: 256 rows, 480 columns, 960 nonzeros
Variable types: 240 continuous, 240 integer (240 binary)

Root relaxation: objective 2.769838e+03, 51 iterations, 0.00 seconds (0.00 work units)

    Nodes    |    Current Node    |     Objective Bounds      |     Work
 Expl Unexpl |  Obj  Depth IntInf | Incumbent    BestBd   Gap | It/Node Time

     0     0 2769.83800    0   14 19617.0000 2769.83800  85.9%     -    0s
H    0     0                    11359.000000 2769.83800  75.6%     -    0s
H    0     0                    11195.000000 2769.83800  75.3%     -    0s
H    0     0                    11088.000000 2769.83800  75.0%     -    0s
H    0     0                    11074.000000 8084.69631  27.0%     -    0s
     0     0 8084.69631    0   26 11074.0000 8084.69631  27.0%     -    0s
H    0     0                    10916.000000 8126.71248  25.6%     -    0s
     0     0 8528.16906    0   24 10916.0000 8528.16906  21.9%     -    0s
     0     0 8539.49533    0   34 10916.0000 8539.49533  21.8%     -    0s
H    0     0                    10806.000000 8548.03675  20.9%     -    0s
     0     0 8548.03675    0   29 10806.0000 8548.03675  20.9%     -    0s
H    0     0                    10778.000000 8739.20556  18.9%     -    0s
H    0     0                    10750.000000 8739.20556  18.7%     -    0s
     0     0 8739.20556    0   38 10750.0000 8739.20556  18.7%     -    0s
H    0     0                    10717.000000 8745.55182  18.4%     -    0s
H    0     0                    10683.000000 8745.55182  18.1%     -    0s
     0     0 8805.66840    0   29 10683.0000 8805.66840  17.6%     -    0s
     0     0 8815.00598    0   31 10683.0000 8815.00598  17.5%     -    0s
     0     0 8817.96662    0   29 10683.0000 8817.96662  17.5%     -    0s
     0     0 9004.63224    0   40 10683.0000 9004.63224  15.7%     -    0s
     0     0 9028.31184    0   38 10683.0000 9028.31184  15.5%     -    0s
     0     0 9032.97640    0   37 10683.0000 9032.97640  15.4%     -    0s
     0     0 9053.24930    0   34 10683.0000 9053.24930  15.3%     -    0s
     0     0 9074.54762    0   29 10683.0000 9074.54762  15.1%     -    0s
     0     0 9074.90532    0   32 10683.0000 9074.90532  15.1%     -    0s
     0     0 9107.08231    0   27 10683.0000 9107.08231  14.8%     -    0s
     0     0 9114.07409    0   28 10683.0000 9114.07409  14.7%     -    0s
     0     0 9120.25426    0   35 10683.0000 9120.25426  14.6%     -    0s
     0     0 9120.56473    0   35 10683.0000 9120.56473  14.6%     -    0s
     0     2 9124.49306    0   35 10683.0000 9124.49306  14.6%     -    0s
H   32    64                    10681.000000 9290.34282  13.0%  40.8    0s
H   36    64                    10678.000000 9290.34282  13.0%  40.9    0s
H 2075  1342                    10674.000000 9534.20311  10.7%  19.2    0s
 35974 12084     cutoff   76      10674.0000 10038.8719  5.95%  25.4    5s
 75574 16326     cutoff   37      10674.0000 10232.0128  4.14%  26.5   10s
 116693 10745 10591.0023   35   16 10674.0000 10406.7528  2.50%  26.9   15s

Cutting planes:
  Gomory: 1
  Lift-and-project: 22
  Cover: 62
  Implied bound: 28
  Dual implied bound: 33
  MIR: 173
  Flow cover: 276
  Flow path: 49
  Inf proof: 2
  Zero half: 4
  Network: 65
  Relax-and-lift: 2

Explored 138703 nodes (3553470 simplex iterations) in 16.98 seconds (23.09 work units)
Thread count was 16 (of 16 available processors)

Solution count 10: 10674 10678 10681 ... 11074

Optimal solution found (tolerance 1.00e-04)
Best objective 1.067400000000e+04, best bound 1.067400000000e+04, gap 0.0000%
